!   File created by MacMolPlt 7.7
 $CONTRL SCFTYP=RHF RUNTYP=ENERGY MAXIT=30 MULT=1 $END
 $SYSTEM TIMLIM=1 MEMORY=1000000 $END
 $BASIS GBASIS=STO NGAUSS=3 $END
 $SCF DIRSCF=.TRUE. $END
 $DATA 
Title
C1
O     8.0     0.00000     0.00000     0.00000
H     1.0     0.00000     0.00000     0.95000
H     1.0     0.89567     0.00000    -0.31666
 $END
